(set-logic QF_S)
(declare-fun B () String)
(declare-fun E () String)
(declare-fun F () String)
(declare-fun A () String)
(declare-fun C () String)
(declare-fun D () String)
(assert (= (str.++  C D "aaaaaaaaaaaaaaaaaaa")  (str.++  B "aaaaaaa" F B "a") ))
(assert (= (str.++  C A "aaaaaaaaaaaaaaaaa")  (str.++  D "aaaaaa" F B "a") ))
(assert (= (str.++  D D D "aaaaaaaaaaaa")  (str.++  F E "aaaaaaaaaaaaa") ))
(check-sat)
(get-model)
